\ Model Ore Mixing Problem
\ LP format - for model browsing. Use MPS format to capture full model detail.
Minimize
  24.09638554216868 a_max_00 + 105.2631578947368 a_max_01
   + 2380.952380952381 a_max_10 + 869.5652173913045 a_max_11
   + 2631.578947368421 a_max_20 + 3333.333333333333 a_max_21
   + 2777.777777777778 a_max_30 + 33333.33333333331 a_max_31
   + 33333.33333333331 a_max_40 + 50000 a_max_41 + 10000 a_max_50
   + 729.92700729927 a_max_51 + 285.7142857142857 a_min_00
   + 28.16901408450704 a_min_01 + 925.9259259259259 a_min_10
   + 2857.142857142857 a_min_11 + 8333.333333333334 a_min_20
   + 5000 a_min_21 + 7142.857142857142 a_min_30
   + 2127.659574468085 a_min_31 + 1030.927835051546 a_min_40
   + 1020.408163265306 a_min_41 + 714.2857142857141 a_min_50
   + 7692.307692307699 a_min_51 + 0.2857142857142857 b_min_00
   + 0.1052631578947368 b_min_01 + 2.380952380952381 b_min_10
   + 2.857142857142857 b_min_11 + 8.333333333333334 b_min_20 + 5 b_min_21
   + 7.142857142857142 b_min_30 + 33.33333333333331 b_min_31
   + 33.33333333333331 b_min_40 + 50 b_min_41 + 10 b_min_50
   + 7.692307692307699 b_min_51 + 0.2857142857142857 b_max_00
   + 0.1052631578947368 b_max_01 + 2.380952380952381 b_max_10
   + 2.857142857142857 b_max_11 + 8.333333333333334 b_max_20 + 5 b_max_21
   + 7.142857142857142 b_max_30 + 33.33333333333331 b_max_31
   + 33.33333333333331 b_max_40 + 50 b_max_41 + 10 b_max_50
   + 7.692307692307699 b_max_51
Subject To
 demand_constr_0: x_00 + x_10 + x_20 + x_30 + x_40 + x_50 = 1280.7
 capacity_constr_00: x_00 <= 412.8
 capacity_constr_10: x_10 <= 497.1
 capacity_constr_20: x_20 <= 322.3
 capacity_constr_30: x_30 <= 506.4
 capacity_constr_40: x_40 <= 360.2
 capacity_constr_50: x_50 <= 639.7
 min_quality_constr_00: 5.54 x_00 - 14.65 x_10 + 11.73 x_20 + 35.17 x_30
   - 11.93 x_40 + 37.81 x_50 + 1280.7 a_min_00 >= -0
 max_quality_constr_00: - 39.46 x_00 - 59.65 x_10 - 33.27 x_20 - 9.83 x_30
   - 56.93 x_40 - 7.19 x_50 - 1280.7 a_max_00 <= -0
 goal_quality_constr_00: 2.04 x_00 - 18.15 x_10 + 8.23 x_20 + 31.67 x_30
   - 15.43 x_40 + 34.31 x_50 + b_min_00 - b_max_00 = -0
 min_quality_constr_10: 1.99 x_00 + 0.36 x_10 + 0.88 x_20 + 1.3 x_30
   + 1.83 x_40 + 1.76 x_50 + 1280.7 a_min_10 >= -0
 max_quality_constr_10: 0.49 x_00 - 1.14 x_10 - 0.62 x_20 - 0.2 x_30
   + 0.33 x_40 + 0.26 x_50 - 1280.7 a_max_10 <= -0
 goal_quality_constr_10: 0.91 x_00 - 0.72 x_10 - 0.2 x_20 + 0.22 x_30
   + 0.75 x_40 + 0.68 x_50 + b_min_10 - b_max_10 = -0
 min_quality_constr_20: 0.35 x_00 + 0.07 x_10 + 6.09 x_20 + 3.93 x_30
   + 4.85 x_40 + 3.84 x_50 + 1280.7 a_min_20 >= -0
 max_quality_constr_20: - 0.15 x_00 - 0.43 x_10 + 5.59 x_20 + 3.43 x_30
   + 4.35 x_40 + 3.34 x_50 - 1280.7 a_max_20 <= -0
 goal_quality_constr_20: 0.23 x_00 - 0.05 x_10 + 5.97 x_20 + 3.81 x_30
   + 4.73 x_40 + 3.72 x_50 + b_min_20 - b_max_20 = -0
 min_quality_constr_30: 3.31 x_00 + 2.34 x_10 + 1.66 x_20 + 5.18 x_30
   + 4.31 x_40 + 6.96 x_50 + 1280.7 a_min_30 >= -0
 max_quality_constr_30: 2.81 x_00 + 1.84 x_10 + 1.16 x_20 + 4.68 x_30
   + 3.81 x_40 + 6.46 x_50 - 1280.7 a_max_30 <= -0
 goal_quality_constr_30: 3.17 x_00 + 2.2 x_10 + 1.52 x_20 + 5.04 x_30
   + 4.17 x_40 + 6.82 x_50 + b_min_30 - b_max_30 = -0
 min_quality_constr_40: 0.95 x_00 + 0.85 x_10 + 0.95 x_20 + 0.61 x_30
   + 0.83 x_40 + 0.01 x_50 + 1280.7 a_min_40 >= -0
 max_quality_constr_40: - 0.05 x_00 - 0.15 x_10 - 0.05 x_20 - 0.39 x_30
   - 0.17 x_40 - 0.99 x_50 - 1280.7 a_max_40 <= -0
 goal_quality_constr_40: - 0.02 x_00 - 0.12 x_10 - 0.02 x_20 - 0.36 x_30
   - 0.14 x_40 - 0.96 x_50 + b_min_40 - b_max_40 = -0
 min_quality_constr_50: - 0.53 x_00 + 1.29 x_10 - 1.21 x_20 + 0.64 x_30
   - 0.7 x_40 + 3.41 x_50 + 1280.7 a_min_50 >= -0
 max_quality_constr_50: - 2.03 x_00 - 0.21 x_10 - 2.71 x_20 - 0.86 x_30
   - 2.2 x_40 + 1.91 x_50 - 1280.7 a_max_50 <= -0
 goal_quality_constr_50: - 1.93 x_00 - 0.11 x_10 - 2.61 x_20 - 0.76 x_30
   - 2.1 x_40 + 2.01 x_50 + b_min_50 - b_max_50 = -0
 demand_constr_1: x_01 + x_11 + x_21 + x_31 + x_41 + x_51 = 1086.3
 capacity_constr_01: x_01 <= 412.8
 capacity_constr_11: x_11 <= 497.1
 capacity_constr_21: x_21 <= 322.3
 capacity_constr_31: x_31 <= 506.4
 capacity_constr_41: x_41 <= 360.2
 capacity_constr_51: x_51 <= 639.7
 min_quality_constr_01: 5.54 x_01 - 14.65 x_11 + 11.73 x_21 + 35.17 x_31
   - 11.93 x_41 + 37.81 x_51 + 1086.3 a_min_01 >= -0
 max_quality_constr_01: - 39.46 x_01 - 59.65 x_11 - 33.27 x_21 - 9.83 x_31
   - 56.93 x_41 - 7.19 x_51 - 1086.3 a_max_01 <= -0
 goal_quality_constr_01: - 29.96 x_01 - 50.15 x_11 - 23.77 x_21 - 0.33 x_31
   - 47.43 x_41 + 2.31 x_51 + b_min_01 - b_max_01 = -0
 min_quality_constr_11: 1.99 x_01 + 0.36 x_11 + 0.88 x_21 + 1.3 x_31
   + 1.83 x_41 + 1.76 x_51 + 1086.3 a_min_11 >= -0
 max_quality_constr_11: 0.49 x_01 - 1.14 x_11 - 0.62 x_21 - 0.2 x_31
   + 0.33 x_41 + 0.26 x_51 - 1086.3 a_max_11 <= -0
 goal_quality_constr_11: 1.64 x_01 + 0.01 x_11 + 0.53 x_21 + 0.95 x_31
   + 1.48 x_41 + 1.41 x_51 + b_min_11 - b_max_11 = -0
 min_quality_constr_21: 0.35 x_01 + 0.07 x_11 + 6.09 x_21 + 3.93 x_31
   + 4.85 x_41 + 3.84 x_51 + 1086.3 a_min_21 >= -0
 max_quality_constr_21: - 0.15 x_01 - 0.43 x_11 + 5.59 x_21 + 3.43 x_31
   + 4.35 x_41 + 3.34 x_51 - 1086.3 a_max_21 <= -0
 goal_quality_constr_21: 0.15 x_01 - 0.13 x_11 + 5.89 x_21 + 3.73 x_31
   + 4.65 x_41 + 3.64 x_51 + b_min_21 - b_max_21 = -0
 min_quality_constr_31: 3.31 x_01 + 2.34 x_11 + 1.66 x_21 + 5.18 x_31
   + 4.31 x_41 + 6.96 x_51 + 1086.3 a_min_31 >= -0
 max_quality_constr_31: 2.81 x_01 + 1.84 x_11 + 1.16 x_21 + 4.68 x_31
   + 3.81 x_41 + 6.46 x_51 - 1086.3 a_max_31 <= -0
 goal_quality_constr_31: 2.84 x_01 + 1.87 x_11 + 1.19 x_21 + 4.71 x_31
   + 3.84 x_41 + 6.49 x_51 + b_min_31 - b_max_31 = -0
 min_quality_constr_41: 0.95 x_01 + 0.85 x_11 + 0.95 x_21 + 0.61 x_31
   + 0.83 x_41 + 0.01 x_51 + 1086.3 a_min_41 >= -0
 max_quality_constr_41: - 0.05 x_01 - 0.15 x_11 - 0.05 x_21 - 0.39 x_31
   - 0.17 x_41 - 0.99 x_51 - 1086.3 a_max_41 <= -0
 goal_quality_constr_41: - 0.03 x_01 - 0.13 x_11 - 0.03 x_21 - 0.37 x_31
   - 0.15 x_41 - 0.97 x_51 + b_min_41 - b_max_41 = -0
 min_quality_constr_51: - 0.53 x_01 + 1.29 x_11 - 1.21 x_21 + 0.64 x_31
   - 0.7 x_41 + 3.41 x_51 + 1086.3 a_min_51 >= -0
 max_quality_constr_51: - 2.03 x_01 - 0.21 x_11 - 2.71 x_21 - 0.86 x_31
   - 2.2 x_41 + 1.91 x_51 - 1086.3 a_max_51 <= -0
 goal_quality_constr_51: - 0.66 x_01 + 1.16 x_11 - 1.34 x_21 + 0.51 x_31
   - 0.83 x_41 + 3.28 x_51 + b_min_51 - b_max_51 = -0
Bounds
End
